100 57325

 990 187
372 805
935 61
995 997
402 939
443 380
490 710
615 807
273 440
526 319
159 302
152 344
995 11
620 62
188 845
813 226
98 153
131 711
805 564
171 772
936 571
986 584
183 660
983 861
364 575
39 310
527 885
888 243
497 493
516 366
349 330
982 107
921 226
397 825
722 218
161 937
16 753
493 506
426 259
108 888
894 774
450 517
311 773
739 54
170 47
546 727
414 689
251 521
759 99
781 20
141 890
274 753
416 573
608 891
739 490
891 419
39 690
814 850
29 62
958 145
477 216
318 3
245 160
748 739
697 998
272 781
440 120
748 893
239 89
377 329
266 580
926 910
921 357
359 610
340 267
389 617
577 952
990 323
689 635
3 988
429 541
142 649
376 195
670 921
324 738
146 332
958 170
293 521
665 463
432 40
705 537
949 261
975 395
585 955
399 226
817 984
889 124
344 975
964 38
140 328
